3 3 2
20 2 9 1 8 2 27 0 9 1 25 2 21 1 16 0 3 2 39 0 19 2 9 1 22 0 12 2 46 1 44 0 46 2 40 1 34 2 41 1 35 
20 0 49 2 45 1 8 0 34 2 24 1 14 0 13 1 22 2 40 1 25 0 47 1 46 0 10 2 21 0 38 2 39 1 40 0 0 2 23 0 27 
20 2 1 0 48 2 27 0 35 2 45 1 20 0 24 1 35 2 24 1 18 0 31 2 47 0 30 1 21 0 19 1 4 0 21 2 29 1 24 2 43 

-------------
